p cnf 15 31                 
3 -6 0
4 -6 0
-3 -4 6 0
-1 7 0
-3 7 0
1 3 -7 0
7 -9 0
1 8 0
-4 8 0
-1 4 -8 0
8 -9 0
-7 -8 9 0
9 -13 0
-2 10 0
-3 10 0
2 3 -10 0
10 -12 0
2 11 0
-4 11 0
-2 4 -11 0
11 -12 0
-10 -11 12 0
12 -13 0
-9 -12 13 0
-6 -13 14 0
6 13 14 0
-13 13 14 0
-1 -5 0
2 -5 0
-14 0
5 0
